c --- [ banner ] -------------------------------------------------------------
c 
c CaDiCaL Radically Simplified CDCL SAT Solver
c Copyright (c) 2016-2021 A. Biere, M. Fleury, N. Froleyks
c 
c Version 1.5.2 a5f15211db36c3956764e18194dd5bd63bf3b5e6
c g++ (GCC) 9.3.0 -Wall -Wextra -O3 -DNDEBUG
c Fri Oct 21 01:27:37 EDT 2022 Linux gra-login3 3.10.0-1160.66.1.el7.x86_64 x86_64
c 
c --- [ limit ] --------------------------------------------------------------
c 
c setting conflict limit to 200000 conflicts (due to '200000')
c 
c --- [ parsing input ] ------------------------------------------------------
c 
c reading DIMACS file from '33.cubes5358.adj'
c opening file to read '33.cubes5358.adj'
c found 'p cnf 6160 1595478' header
c parsed 1595478 clauses in 19.40 seconds process time
c closing file '33.cubes5358.adj'
c after reading 1457566797 bytes 1390.0 MB
c 
c --- [ options ] ------------------------------------------------------------
c 
c all options are set to their default value
c 
c --- [ solving ] ------------------------------------------------------------
c 
c time measured in process time since initialization
c 
c  seconds    reductions  redundant   irredundant
c          MB     restarts       trail       variables
c            level   conflicts       glue         remaining
c 
c * 19.41 1383  0 0   0    0    0  0% 0 1595422 2342 38%
c { 20.82 1439  0 0   0    0    0  0% 0 1595422 2342 38%
c i 23.02 1489 550 0   3   59   45 34% 14 1595422 2341 38%
c i 23.78 1495 407 0   6   83   68 32% 22 1595422 2340 38%
c i 25.70 1514 225 0  30  184  159 30% 35 1595422 2339 38%
c i 25.81 1514 216 0  30  200  173 30% 36 1595422 2338 38%
c i 26.91 1515 195 0  35  248  202 29% 36 1595422 2337 38%
c - 31.66 1479 180 1  44  304  240 29% 38 451782 2337 38%
c i 32.33 1479 167 1  47  337  266 28% 36 451782 2336 38%
c i 32.82 1479 163 1  51  369  295 28% 38 451782 2335 38%
c i 32.83 1479 163 1  51  371  296 28% 38 451782 2334 38%
c i 33.14 1480 160 1  54  390  314 28% 39 451782 2333 38%
c i 33.18 1480 160 1  55  393  316 28% 38 451782 2332 38%
c i 33.61 1480 158 1  60  415  336 28% 39 451782 2331 38%
c i 33.67 1480 159 1  61  426  342 28% 39 451782 2327 38%
c i 33.90 1480 155 1  67  445  359 28% 39 451782 2326 38%
c i 33.99 1480 153 1  67  454  365 28% 39 451782 2325 38%
c i 34.06 1480 149 1  67  470  380 28% 38 451782 2324 38%
c i 34.12 1480 148 1  67  482  387 28% 38 451782 2313 38%
c i 34.40 1481 145 1  67  516  419 28% 38 451782 2312 38%
c 
c  seconds     reductions  redundant   irredundant
c          MB      restarts       trail       variables
c             level   conflicts       glue         remaining
c 
c i 34.91 1481 123 1  73  651  524 28% 36 451782 2310 38%
c i 34.99 1481 120 1  73  681  543 28% 35 451782 2309 37%
c i 35.02 1481 117 1  73  705  561 28% 34 451782 2308 37%
c i 35.23 1481 101 1  73  838  659 28% 31 451782 2307 37%
c i 35.34 1481 95 1  73  903  714 28% 30 451782 2306 37%
c } 35.41 1481 88 1  73 1000  791 29% 29 451782 2306 37%
c [ 35.41 1481  0 1  73 1000  791  0% 0 451782 2306 37%
c O 35.42 1481 12 1  73 1002  793 24% 10 451782 2306 37%
c i 35.88 1481 22 1  73 1249  983 33% 18 451782 2305 37%
c - 36.81 1533 22 2  73 1296  901 33% 18 378337 2305 37%
c i 37.00 1533 23 2  73 1355  939 33% 19 378337 2304 37%
c i 37.02 1533 23 2  73 1385  956 33% 19 378337 2303 37%
c i 37.06 1533 23 2  73 1454 1008 33% 19 378337 2302 37%
c i 37.14 1533 24 2  73 1545 1079 33% 20 378337 2301 37%
c i 37.14 1533 24 2  73 1546 1079 33% 20 378337 2300 37%
c i 37.24 1533 26 2  73 1667 1165 33% 22 378337 2299 37%
c ] 37.52 1533 26 2  74 2240 1566 32% 22 378337 2299 37%
c 1 37.52 1533 26 2  74 2240 1566 32% 22 378337 2299 37%
c 
c --- [ writing output ] -----------------------------------------------------
c 
c writing simplified CNF to DIMACS file 'simp/33.cubes5358.adj.simp1'
c * 37.52 1533 26 2  74 2240 1566 32% 22 378337 2299 37%
c opening file to write 'simp/33.cubes5358.adj.simp1'
c writing 'p cnf 6160 378319' header
c closing file 'simp/33.cubes5358.adj.simp1'
c after writing 183308355 bytes 174.8 MB
c wrote 378319 clauses in 1.38 seconds process time
c 
c --- [ writing extension ] --------------------------------------------------
c 
c writing extension stack to 'simp/33.cubes5358.adj.ext1'
c opening file to write 'simp/33.cubes5358.adj.ext1'
c closing file 'simp/33.cubes5358.adj.ext1'
c after writing 10604 bytes 0.0 MB
c wrote 717 witnesses in 0.00 seconds process time
c 
c --- [ result ] -------------------------------------------------------------
c 
s SATISFIABLE
c 
c --- [ run-time profiling ] -------------------------------------------------
c 
c process time taken by individual solving procedures
c (percentage relative to process time for solving)
c 
c        19.40  107.11% parse
c        18.12   99.99% search
c        14.59   80.54% unstable
c         2.11   11.66% stable
c         1.41    7.79% lucky
c         0.00    0.00% simplify
c   =================================
c        18.12   46.57% solve
c 
c last line shows process time for solving
c (percentage relative to total process time)
c 
c --- [ statistics ] ---------------------------------------------------------
c 
c chronological:               579        25.85 %  of conflicts
c conflicts:                  2240       123.64    per second
c decisions:                 17101       943.93    per second
c fixed:                       717        11.64 %  of all variables
c learned:                    2164        96.61 %  per conflict
c learned_lits:             412256       100.00 %  learned literals
c minimized:                     0         0.00 %  learned literals
c shrunken:                 203669        49.40 %  learned literals
c minishrunken:              54631        13.25 %  learned literals
c propagations:             356285         0.02 M  per second
c reduced:                     112         5.00 %  per conflict
c rephased:                      1      2240.00    interval
c restarts:                     74        30.27    interval
c stabilizing:                   1        55.36 %  of conflicts
c subsumed:                    450         0.01 %  of all clauses
c 
c seconds are measured in process time for solving
c 
c --- [ resources ] ----------------------------------------------------------
c 
c total process time since initialization:        38.90    seconds
c total real time since initialization:           39.81    seconds
c maximum resident set size of process:         1641.88    MB
c 
c --- [ shutting down ] ------------------------------------------------------
c 
c exit 10
WARNING! DIMACS header mismatch: wrong number of variables.
============================[ Problem Statistics ]=============================
|                                                                             |
|  Number of variables:          6120                                         |
|  Number of clauses:          378319                                         |
|  Parse time:                   2.47 s                                       |
|  Simplification time:          0.06 s                                       |
|                                                                             |
============================[ Search Statistics ]====================================================
| Conflicts |          ORIGINAL         |          LEARNT          | Num Sols |      SUBGRAPHS      |
|           |    Vars  Clauses Literals |    Limit  Clauses Lit/Cl |          | Canonical Noncanon. |
=====================================================================================================
|       107 |    6027   378326 39763778 |     2000      106     79 |        0 |        19         7 |
|       268 |    6025   378337 39764082 |     2000      265     67 |        0 |        36        18 |
|       496 |    6025   378340 39764286 |     2000      493     77 |        0 |        45        21 |
|       931 |    6022   378438 39766746 |     2000      925     73 |        0 |        83       119 |
|      1521 |    6019   378522 39770140 |     2000     1512     97 |        0 |       112       203 |
|      2372 |    6013   378614 39772326 |     3596     1366     59 |        0 |       150       295 |
|      3600 |    6011   378703 39774469 |     3596     2592     87 |        0 |       196       384 |
|      5579 |    6011   378974 39778999 |     4997     2776     54 |        0 |       366       655 |
|      8287 |    6010   379120 39781611 |     6302     2989     42 |        0 |       414       801 |
|     12422 |    6007   379411 39786650 |     7553     3974     49 |        0 |       521      1092 |
|     18876 |    6005   380099 39798471 |     8782     6657     64 |        0 |       706      1780 |
|     27913 |    6005   380487 39806344 |    11199     6312     39 |        0 |       853      2168 |
|     41308 |    5999   380908 39813904 |    13605     7911     42 |        0 |       959      2589 |
|     61637 |    5996   381776 39829912 |    16005    14042     69 |        0 |      1255      3457 |
|     91656 |    5996   382603 39844421 |    19611    18267     72 |        0 |      1500      4284 |
|    135687 |    5996   382845 39848158 |    24407    19494     63 |        0 |      1629      4526 |
|    203098 |    5993   384572 39877067 |    30410    19908     64 |        0 |      2236      6253 |
|    302644 |    5993   385592 39894226 |    37620    19264     52 |        0 |      2720      7273 |
|    451300 |    5993   386356 39910943 |    46008    23708     52 |        0 |      3162      8140 |
|    674073 |    5993   387446 39932561 |    55612    45685     77 |        0 |      3538      9230 |
|   1009053 |    5993   389901 39977173 |    68821    41874     60 |        0 |      4246     11685 |
|   1512590 |    5992   394647 40065160 |    84431    51421     57 |        0 |      5780     16434 |
|   2280593 |    5990   414462 40406200 |   103630    72223     62 |        0 |      9751     36255 |
|   3424075 |    5990   435670 40857010 |   127628    65703     37 |        0 |     14955     57463 |
|   5138001 |    5989   466182 41528142 |   156422    82823     40 |        0 |     25321     87978 |
|   7695708 |    5988   498770 42162588 |   191212   129120     57 |        0 |     32207    120569 |
|  11507738 |    5927   432827 40876669 |   234212   121350     50 |        0 |     40797    144924 |
=====================================================================================================
Number of solutions   : 0
Canonical subgraphs   : 41434          (22 /sec)
          order  3    : 1              (166667 /sec)
          order  4    : 1              (1000000 /sec)
          order  5    : 1              (250000 /sec)
          order  6    : 1              (55556 /sec)
          order  7    : 1              (8772 /sec)
          order  8    : 2              (1361 /sec)
          order  9    : 8              (389 /sec)
          order 10    : 32             (115 /sec)
          order 11    : 156            (37 /sec)
          order 12    : 1162           (15 /sec)
          order 13    : 4584           (14 /sec)
          order 14    : 17154          (23 /sec)
          order 15    : 15131          (26 /sec)
          order 16    : 1740           (25 /sec)
          order 17    : 817            (20 /sec)
          order 18    : 182            (17 /sec)
          order 19    : 165            (16 /sec)
          order 20    : 143            (16 /sec)
          order 21    : 153            (15 /sec)
          order 22    : 0              (-nan /sec)
Noncanonical subgraphs: 147028         (903 /sec)
          order  3    : 0              (-nan /sec)
          order  4    : 0              (-nan /sec)
          order  5    : 0              (-nan /sec)
          order  6    : 0              (-nan /sec)
          order  7    : 0              (-nan /sec)
          order  8    : 0              (-nan /sec)
          order  9    : 0              (-nan /sec)
          order 10    : 0              (-nan /sec)
          order 11    : 0              (-nan /sec)
          order 12    : 0              (-nan /sec)
          order 13    : 24144          (2940 /sec)
          order 14    : 87240          (1118 /sec)
          order 15    : 27849          (1413 /sec)
          order 16    : 6921           (188 /sec)
          order 17    : 587            (103 /sec)
          order 18    : 122            (47 /sec)
          order 19    : 2              (7663 /sec)
          order 20    : 0              (-nan /sec)
          order 21    : 0              (-nan /sec)
Canonicity checking   : 1893.99 s
Noncanonicity checking: 162.8 s
Total canonicity time : 2056.79 s
database reductions   : 196
restarts              : 17364
conflicts             : 11888506       (1258 /sec)
decisions             : 14736786       (0.00 % random) (1560 /sec)
propagations          : 1392191273     (147369 /sec)
conflict literals     : 1300929818     (55.45 % deleted)
actual reward         : 0.107003
Memory used           : 635.00 MB
CPU time              : 9447.01 s

UNSATISFIABLE
